NAME 
ROWS
 N  OBJ
 L  R0      
 L  R1      
 L  R2      
 E  R3      
 E  R4      
 E  R5      
 E  R6      
 E  R7      
 E  R8      
 E  R9      
 E  R10     
 E  R11     
 E  R12     
 E  R13     
 E  R14     
 E  R15     
 E  R16     
 E  R17     
COLUMNS
    MARKER    'MARKER'                 'INTORG'
    I0(10)    OBJ       -163
    I0(10)    R0        8
    I0(10)    R1        145
    I0(10)    R2        126
    I0(10)    R3        9
    I0(10)    R4        8
    I0(10)    R6        2
    I0(10)    R7        7
    I0(10)    R8        11
    I0(10)    R9        12
    I0(10)    R17       1
    I1(10)    OBJ       -199
    I1(10)    R0        -129
    I1(10)    R1        -183
    I1(10)    R2        -122
    I1(10)    R3        7
    I1(10)    R4        18
    I1(10)    R5        11
    I1(10)    R6        6
    I1(10)    R7        6
    I1(10)    R9        1
    I1(10)    R17       1
    I2(8)     OBJ       184
    I2(8)     R0        -29
    I2(8)     R1        -139
    I2(8)     R2        72
    I2(8)     R4        10
    I2(8)     R6        6
    I2(8)     R7        6
    I2(8)     R8        11
    I2(8)     R17       1
    I3(9)     OBJ       -177
    I3(9)     R0        -91
    I3(9)     R1        -73
    I3(9)     R2        42
    I3(9)     R3        1
    I3(9)     R4        10
    I3(9)     R5        17
    I3(9)     R7        16
    I3(9)     R8        1
    I3(9)     R17       1
    I4(9)     OBJ       33
    I4(9)     R0        -113
    I4(9)     R1        -184
    I4(9)     R3        19
    I4(9)     R4        2
    I4(9)     R5        11
    I4(9)     R7        1
    I4(9)     R8        6
    I4(9)     R9        16
    I4(9)     R17       1
    I5(7)     OBJ       -196
    I5(7)     R0        -65
    I5(7)     R1        107
    I5(7)     R2        -2
    I5(7)     R3        19
    I5(7)     R4        12
    I5(7)     R8        1
    I5(7)     R17       1
    I6(10)    OBJ       -192
    I6(10)    R0        126
    I6(10)    R1        -129
    I6(10)    R2        85
    I6(10)    R4        16
    I6(10)    R5        1
    I6(10)    R6        7
    I6(10)    R7        17
    I6(10)    R8        2
    I6(10)    R9        7
    I6(10)    R17       1
    MARKER    'MARKER'                 'INTEND'
    C7(15)    OBJ       -1
    C7(15)    R0        -10
    C7(15)    R1        3
    C7(15)    R2        3
    C7(15)    R3        10
    C7(15)    R4        3
    C7(15)    R5        18
    C7(15)    R6        12
    C7(15)    R7        16
    C7(15)    R8        5
    C7(15)    R9        5
    C7(15)    R10       -1
    C7(15)    R11       4
    C7(15)    R14       9
    C7(15)    R15       17
    C7(15)    R16       15
    C8(15)    OBJ       7
    C8(15)    R0        4
    C8(15)    R1        1
    C8(15)    R2        -8
    C8(15)    R3        1
    C8(15)    R5        19
    C8(15)    R6        10
    C8(15)    R7        10
    C8(15)    R9        6
    C8(15)    R10       4
    C8(15)    R11       16
    C8(15)    R12       8
    C8(15)    R13       15
    C8(15)    R14       8
    C8(15)    R15       19
    C8(15)    R16       12
    C9(15)    OBJ       3
    C9(15)    R0        -3
    C9(15)    R1        1
    C9(15)    R2        -8
    C9(15)    R3        11
    C9(15)    R4        15
    C9(15)    R5        12
    C9(15)    R6        8
    C9(15)    R7        17
    C9(15)    R8        -1
    C9(15)    R9        11
    C9(15)    R11       12
    C9(15)    R13       11
    C9(15)    R14       7
    C9(15)    R15       4
    C9(15)    R16       -1
    C10(15)   OBJ       9
    C10(15)   R0        -2
    C10(15)   R1        6
    C10(15)   R2        -2
    C10(15)   R3        7
    C10(15)   R4        7
    C10(15)   R5        3
    C10(15)   R6        -1
    C10(15)   R8        14
    C10(15)   R10       2
    C10(15)   R11       19
    C10(15)   R12       12
    C10(15)   R13       1
    C10(15)   R14       14
    C10(15)   R15       10
    C10(15)   R16       5
    C11(14)   OBJ       -8
    C11(14)   R0        -5
    C11(14)   R1        2
    C11(14)   R2        8
    C11(14)   R3        12
    C11(14)   R4        1
    C11(14)   R6        2
    C11(14)   R8        -1
    C11(14)   R9        9
    C11(14)   R10       1
    C11(14)   R11       18
    C11(14)   R13       14
    C11(14)   R14       13
    C11(14)   R15       16
    C11(14)   R16       19
    C12(15)   OBJ       9
    C12(15)   R1        -2
    C12(15)   R2        1
    C12(15)   R3        15
    C12(15)   R4        6
    C12(15)   R5        3
    C12(15)   R6        14
    C12(15)   R7        16
    C12(15)   R8        1
    C12(15)   R9        1
    C12(15)   R10       14
    C12(15)   R11       11
    C12(15)   R13       16
    C12(15)   R14       18
    C12(15)   R15       4
    C12(15)   R16       -1
    C13(12)   OBJ       6
    C13(12)   R0        -2
    C13(12)   R1        -4
    C13(12)   R2        -1
    C13(12)   R3        1
    C13(12)   R4        3
    C13(12)   R5        3
    C13(12)   R6        5
    C13(12)   R7        7
    C13(12)   R8        5
    C13(12)   R9        14
    C13(12)   R11       19
    C13(12)   R16       4
    C14(14)   OBJ       -2
    C14(14)   R0        -6
    C14(14)   R1        3
    C14(14)   R2        7
    C14(14)   R4        15
    C14(14)   R7        -1
    C14(14)   R8        8
    C14(14)   R9        8
    C14(14)   R10       17
    C14(14)   R11       3
    C14(14)   R12       8
    C14(14)   R13       8
    C14(14)   R14       18
    C14(14)   R15       2
    C14(14)   R16       8
    C15(1)    R3        1
    C16(1)    R4        1
    C17(1)    R5        1
    C18(1)    R6        1
    C19(1)    R7        1
    C20(1)    R8        1
    C21(1)    R9        1
    C22(1)    R10       1
    C23(1)    R11       1
    C24(1)    R12       1
    C25(1)    R13       1
    C26(1)    R14       1
    C27(1)    R15       1
    C28(1)    R16       1
    C29(1)    R17       1
RHS
    RHS1      R0        -2.8268965517241361e+02
    RHS1      R1        -3.5548275862068971e+02
    RHS1      R2        -2.0727586206896569e+02
    RHS1      R3        86
    RHS1      R4        74
    RHS1      R5        97
    RHS1      R6        65
    RHS1      R7        57
    RHS1      R8        59
    RHS1      R9        57
    RHS1      R10       61
    RHS1      R11       69
    RHS1      R12       81
    RHS1      R13       96
    RHS1      R14       92
    RHS1      R15       70
    RHS1      R16       78
    RHS1      R17       2
BOUNDS
 UP BND1      I0(10)    2
 UP BND1      I1(10)    2
 UP BND1      I2(8)     2
 UP BND1      I3(9)     2
 UP BND1      I4(9)     2
 UP BND1      I5(7)     2
 UP BND1      I6(10)    2
ENDATA
